(set-info :smt-lib-version 2.6)
(set-logic QF_UFLRA)
(set-info :source |
MathSat group

|)
(set-info :category "random")
(set-info :status sat)
(declare-fun x0 () Real)
(declare-fun x1 () Real)
(declare-fun x2 () Real)
(declare-fun x3 () Real)
(declare-fun x4 () Real)
(declare-fun x5 () Real)
(declare-fun x6 () Real)
(declare-fun x7 () Real)
(declare-fun x8 () Real)
(declare-fun x9 () Real)
(declare-fun x10 () Real)
(declare-fun x11 () Real)
(declare-fun x12 () Real)
(declare-fun x13 () Real)
(declare-fun x14 () Real)
(declare-fun x15 () Real)
(declare-fun x16 () Real)
(declare-fun x17 () Real)
(declare-fun x18 () Real)
(declare-fun x19 () Real)
(declare-fun x20 () Real)
(declare-fun x21 () Real)
(declare-fun x22 () Real)
(declare-fun x23 () Real)
(declare-fun x24 () Real)
(declare-fun x25 () Real)
(declare-fun x26 () Real)
(declare-fun x27 () Real)
(declare-fun x28 () Real)
(declare-fun x29 () Real)
(declare-fun x30 () Real)
(declare-fun x31 () Real)
(declare-fun x32 () Real)
(declare-fun x33 () Real)
(declare-fun x34 () Real)
(declare-fun x35 () Real)
(declare-fun x36 () Real)
(declare-fun x37 () Real)
(declare-fun x38 () Real)
(declare-fun x39 () Real)
(declare-fun x40 () Real)
(declare-fun x41 () Real)
(declare-fun x42 () Real)
(declare-fun x43 () Real)
(declare-fun x44 () Real)
(declare-fun x45 () Real)
(declare-fun x46 () Real)
(declare-fun x47 () Real)
(declare-fun x48 () Real)
(declare-fun x49 () Real)
(declare-fun f0_1 (Real) Real)
(declare-fun f0_2 (Real Real) Real)
(declare-fun f0_3 (Real Real Real) Real)
(declare-fun f0_4 (Real Real Real Real) Real)
(declare-fun P0 () Bool)
(declare-fun P1 () Bool)
(declare-fun P2 () Bool)
(declare-fun P3 () Bool)
(declare-fun P4 () Bool)
(declare-fun P5 () Bool)
(declare-fun P6 () Bool)
(declare-fun P7 () Bool)
(declare-fun P8 () Bool)
(declare-fun P9 () Bool)
(declare-fun P10 () Bool)
(declare-fun P11 () Bool)
(declare-fun P12 () Bool)
(declare-fun P13 () Bool)
(declare-fun P14 () Bool)
(declare-fun P15 () Bool)
(declare-fun P16 () Bool)
(declare-fun P17 () Bool)
(declare-fun P18 () Bool)
(declare-fun P19 () Bool)
(declare-fun P20 () Bool)
(declare-fun P21 () Bool)
(declare-fun P22 () Bool)
(declare-fun P23 () Bool)
(declare-fun P24 () Bool)
(declare-fun P25 () Bool)
(declare-fun P26 () Bool)
(declare-fun P27 () Bool)
(declare-fun P28 () Bool)
(declare-fun P29 () Bool)
(declare-fun P30 () Bool)
(declare-fun P31 () Bool)
(declare-fun P32 () Bool)
(declare-fun P33 () Bool)
(declare-fun P34 () Bool)
(declare-fun P35 () Bool)
(declare-fun P36 () Bool)
(declare-fun P37 () Bool)
(declare-fun P38 () Bool)
(declare-fun P39 () Bool)
(declare-fun P40 () Bool)
(declare-fun P41 () Bool)
(declare-fun P42 () Bool)
(declare-fun P43 () Bool)
(declare-fun P44 () Bool)
(declare-fun P45 () Bool)
(declare-fun P46 () Bool)
(declare-fun P47 () Bool)
(declare-fun P48 () Bool)
(declare-fun P49 () Bool)
(assert (let ((?v_24 (* 9 x27))) (let ((?v_211 (distinct (+ (- (* 4 x30) ?v_24) (* 14 x12)) 27)) (?v_36 (* 26 x25)) (?v_54 (* 3 x8)) (?v_17 (< (+ (- (* 23 x13) (* 25 x28)) (* 24 x1)) 29)) (?v_115 (distinct (- (+ (* 2 x38) (* 18 x14)) (* 19 x13)) 9)) (?v_27 (< (+ (- (* 5 x37) (* 12 x8)) (* 27 x14)) 26))) (let ((?v_100 (distinct (- (+ ?v_54 (* 13 x11)) (* 8 x18)) 12)) (?v_31 (* 24 x28)) (?v_198 (< (- (- (* 14 x27) (* 6 x15)) (* 22 x11)) 14)) (?v_50 (f0_1 x46))) (let ((?v_68 (distinct ?v_50 x40)) (?v_28 (f0_1 x45))) (let ((?v_0 (= x34 ?v_28)) (?v_125 (f0_1 x14))) (let ((?v_120 (= (f0_1 x20) ?v_125)) (?v_142 (f0_1 x7))) (let ((?v_22 (distinct ?v_142 x25)) (?v_55 (= x47 (f0_1 x35))) (?v_154 (f0_1 x47))) (let ((?v_254 (= ?v_154 (f0_1 x5))) (?v_91 (= ?v_28 x1)) (?v_174 (= ?v_142 (f0_2 x36 x40))) (?v_166 (distinct x31 (f0_1 x30))) (?v_58 (= x5 (f0_2 x16 x15))) (?v_185 (distinct (f0_2 x1 x33) (f0_1 x13))) (?v_147 (= x49 x3)) (?v_143 (= (f0_2 x1 x14) x41)) (?v_71 (= x39 (f0_2 x10 x5))) (?v_25 (distinct (f0_1 x34) (f0_2 x14 x11))) (?v_78 (distinct ?v_50 (f0_2 x24 x31))) (?v_38 (= (f0_1 x10) (f0_2 x12 x4))) (?v_87 (distinct (f0_2 x38 x9) (f0_2 x8 x36))) (?v_233 (distinct x19 (f0_2 x4 x19))) (?v_84 (= x7 (f0_2 x32 x20))) (?v_23 (f0_1 x8))) (let ((?v_66 (= ?v_23 x30)) (?v_204 (distinct (f0_1 x0) x49)) (?v_247 (distinct x36 (f0_1 x2))) (?v_80 (= (f0_2 x6 x28) x49)) (?v_163 (distinct x0 (f0_2 x2 x14))) (?v_152 (= x23 (f0_2 x42 x10))) (?v_19 (distinct (f0_1 x15) (f0_2 x37 x42))) (?v_12 (= x41 (f0_1 x28))) (?v_106 (distinct (f0_2 x8 x0) ?v_23)) (?v_97 (distinct (f0_2 x33 x41) (f0_2 x46 x15))) (?v_1 (= x7 (f0_2 x35 x10))) (?v_64 (distinct (f0_1 x17) x31)) (?v_86 (distinct x28 (f0_1 x27))) (?v_18 (distinct (f0_2 x6 x2) x11)) (?v_133 (= x33 x13)) (?v_34 (= (f0_2 x28 x27) (f0_2 x29 x5))) (?v_203 (= ?v_142 (f0_1 x18))) (?v_126 (distinct (f0_2 x15 x5) (f0_1 x33))) (?v_123 (distinct (f0_2 x0 x21) (f0_2 x25 x18))) (?v_256 (distinct (f0_2 x9 x31) (f0_2 x2 x48))) (?v_141 (= ?v_125 x2)) (?v_98 (= (f0_2 x47 x40) (f0_2 x3 x0))) (?v_4 (= (f0_1 x38) (f0_2 x17 x35))) (?v_90 (distinct x45 (f0_2 x33 x23))) (?v_104 (distinct x48 (f0_2 x32 x29))) (?v_214 (= x31 x27)) (?v_157 (distinct (f0_2 x35 x27) x29)) (?v_170 (= ?v_154 x43)) (?v_42 (distinct (f0_2 x9 x0) x20)) (?v_40 (distinct x30 (f0_2 x7 x5))) (?v_5 (not P21)) (?v_151 (not P8))) (let ((?v_114 (not ?v_4)) (?v_59 (not ?v_233)) (?v_15 (not ?v_0)) (?v_209 (not ?v_254)) (?v_20 (not ?v_22)) (?v_7 (not ?v_166)) (?v_51 (not ?v_25)) (?v_9 (not ?v_87)) (?v_238 (not P45)) (?v_2 (not P2)) (?v_210 (not ?v_106)) (?v_21 (not ?v_98)) (?v_162 (not P0)) (?v_175 (not P23)) (?v_122 (not P26)) (?v_62 (not P12)) (?v_178 (not P5)) (?v_184 (not P6)) (?v_179 (not ?v_115)) (?v_119 (not ?v_214)) (?v_41 (not P43)) (?v_75 (not ?v_104)) (?v_116 (not ?v_17)) (?v_49 (not P37)) (?v_229 (not P28)) (?v_161 (not ?v_163)) (?v_153 (not ?v_18)) (?v_188 (not P13)) (?v_215 (not ?v_143)) (?v_231 (not ?v_80)) (?v_131 (not ?v_38)) (?v_32 (not P33)) (?v_53 (not P38)) (?v_60 (not ?v_34)) (?v_129 (not ?v_86)) (?v_73 (not ?v_19)) (?v_46 (not ?v_126)) (?v_48 (not P1)) (?v_146 (not ?v_211)) (?v_117 (not P29)) (?v_45 (not P32)) (?v_102 (not ?v_147)) (?v_180 (not P27)) (?v_43 (not ?v_71)) (?v_109 (not ?v_27)) (?v_61 (not ?v_84)) (?v_74 (not ?v_185)) (?v_181 (not P25)) (?v_187 (not ?v_40)) (?v_94 (not P39)) (?v_173 (not ?v_78)) (?v_112 (not P4)) (?v_93 (not P30)) (?v_240 (not ?v_1)) (?v_52 (not ?v_64)) (?v_105 (not ?v_68)) (?v_171 (not P34)) (?v_65 (not P20)) (?v_165 (not ?v_204)) (?v_85 (not P22)) (?v_144 (not P15)) (?v_107 (not P36)) (?v_99 (not ?v_97)) (?v_172 (not ?v_91)) (?v_132 (not ?v_100)) (?v_103 (not P42)) (?v_217 (not P10)) (?v_158 (not ?v_133)) (?v_176 (not P3)) (?v_159 (not P40)) (?v_135 (not P7)) (?v_253 (not P46)) (?v_118 (not P11)) (?v_250 (not ?v_120)) (?v_167 (not ?v_12)) (?v_241 (not ?v_58)) (?v_225 (not ?v_203)) (?v_160 (not ?v_90)) (?v_201 (not P9)) (?v_155 (not P18)) (?v_177 (not ?v_152)) (?v_235 (not ?v_157)) (?v_212 (not P49)) (?v_183 (not ?v_174)) (?v_193 (not ?v_141)) (?v_213 (not ?v_123)) (?v_228 (not ?v_198)) (?v_206 (not ?v_42)) (?v_186 (not P31)) (?v_190 (not P17)) (?v_200 (not P19)) (?v_221 (not ?v_66)) (?v_224 (not P16)) (?v_205 (not P41)) (?v_227 (not ?v_170)) (?v_232 (not P48)) (?v_243 (not ?v_247)) (?v_239 (not P35)) (?v_234 (not P24)) (?v_242 (not ?v_55)) (?v_259 (not P44)) (?v_246 (not P14)) (?v_257 (not ?v_256)) (?v_137 (< (+ (* 21 x2) (* 2 x48)) 26))) (let ((?v_81 (not ?v_137)) (?v_156 (< (+ (* 8 x30) (* 26 x45) (* 22 x16)) 18))) (let ((?v_79 (not ?v_156)) (?v_30 (< (+ (* 24 x25) (* 4 x45)) 25)) (?v_67 (< (+ (* 22 x40) (* 8 x22) (* 9 x34)) 26))) (let ((?v_124 (not ?v_67)) (?v_168 (not ?v_30)) (?v_199 (< (+ (* 24 x5) (* 12 x33) (* 17 x33)) 26))) (let ((?v_216 (not ?v_199)) (?v_29 (< (+ (* (- 19) x35) (* 14 x46) (* 27 x6)) (- 24))) (?v_33 (<= (+ (- (* (- 19) x38) (* 4 x34)) (* 13 x26)) 6))) (let ((?v_16 (not ?v_33)) (?v_6 (= (- (+ (* 9 x45) (* 9 x46)) (* 2 x4)) (- 21))) (?v_72 (distinct (+ (- (* (- 26) x17) (* 27 x22)) (* 24 x22)) (- 19))) (?v_218 (<= (+ (* 2 x8) (* 16 x15) (* 27 x25)) (- 24)))) (let ((?v_169 (not ?v_218)) (?v_76 (distinct (- (+ (* (- 8) x42) ?v_24) (* 25 x42)) 10))) (let ((?v_3 (not ?v_76)) (?v_10 (<= (- (- (* 3 x3) (* 3 x31)) (* 14 x41)) (- 8))) (?v_95 (distinct (+ (* 25 x47) (* 6 x40) (* 10 x6)) (- 1))) (?v_56 (< (+ (* (- 21) x14) (* 4 x14)) (- 7))) (?v_44 (= (+ (* (- 19) x11) ?v_36 (* 12 x19)) 23)) (?v_11 (not ?v_6)) (?v_14 (<= (+ (* (- 6) x25) (* 6 x49) (* 20 x19)) 21))) (let ((?v_8 (not ?v_14)) (?v_63 (<= (+ (- (* (- 2) x13) (* 12 x32)) (* 2 x25)) 16)) (?v_248 (distinct (- (+ (* (- 4) x10) (* 23 x10)) (* 2 x23)) (- 27)))) (let ((?v_39 (not ?v_248)) (?v_13 (<= (- (+ (* (- 17) x18) (* 26 x11)) (* 2 x6)) 24)) (?v_149 (< (- (+ (* 27 x5) ?v_31) (* 10 x15)) (- 14)))) (let ((?v_194 (not ?v_149)) (?v_37 (<= (- (- (* (- 2) x8) (* 8 x23)) (* 6 x14)) (- 2))) (?v_47 (distinct (- (+ (* (- 9) x44) (* 19 x43)) (* 24 x15)) 9))) (let ((?v_128 (not ?v_47)) (?v_101 (< (- (+ (* (- 9) x9) (* 25 x45)) (* 5 x30)) (- 24))) (?v_26 (not ?v_10)) (?v_35 (< (+ (* (- 20) x46) x17 (* 16 x19)) (- 4))) (?v_164 (not ?v_29)) (?v_136 (< (- (+ (* (- 24) x17) ?v_31) (* 6 x21)) (- 19)))) (let ((?v_145 (not ?v_35)) (?v_140 (< (- (- (* (- 5) x8) (* 17 x18)) (* 21 x24)) 0)) (?v_57 (<= (- (- (* (- 25) x40) (* 17 x38)) ?v_36) 14)) (?v_189 (distinct (+ (- (* (- 26) x0) (* 20 x7)) ?v_54) 3)) (?v_69 (<= (+ (* (- 19) x43) (* 16 x34) (* 24 x2)) 21)) (?v_223 (< (- (- (* 6 x11) 0) (* 23 x14)) (- 16)))) (let ((?v_148 (not ?v_223)) (?v_207 (not ?v_44)) (?v_83 (< (- (- (* (- 16) x16) (* 27 x29)) 0) 6))) (let ((?v_108 (not ?v_83)) (?v_77 (distinct (- (- (* (- 1) x15) (* 16 x26)) (* 14 x1)) 7)) (?v_70 (<= (+ (- (* (- 17) x23) (* 6 x17)) (* 27 x48)) 6)) (?v_82 (< (- (+ (* 9 x49) (* 19 x25)) (* 25 x25)) (- 26))) (?v_113 (<= (- (- (* (- 22) x21) (* 23 x4)) (* 4 x27)) (- 4)))) (let ((?v_88 (not ?v_113)) (?v_138 (not ?v_63)) (?v_134 (<= (- (- (* (- 16) x19) (* 21 x43)) (* 18 x19)) 14))) (let ((?v_191 (not ?v_134)) (?v_92 (not ?v_69)) (?v_89 (not ?v_56)) (?v_182 (not ?v_70)) (?v_110 (< (- (+ (* 21 x46) (* 17 x47)) (* 23 x33)) (- 6)))) (let ((?v_130 (not ?v_110)) (?v_252 (not ?v_72)) (?v_96 (<= (+ (- (* (- 18) x14) (* 19 x46)) (* 4 x25)) (- 28))) (?v_208 (< (- (- (* (- 11) x10) (* 16 x8)) x14) (- 15))) (?v_127 (not ?v_57)) (?v_121 (<= (+ (- (* (- 2) x1) (* 10 x18)) (* 18 x3)) (- 25))) (?v_111 (not ?v_77)) (?v_244 (or ?v_21 ?v_29)) (?v_150 (not ?v_13))) (let ((?v_251 (not ?v_121)) (?v_139 (= (+ (- 0 (* 15 x27)) (* 23 x34)) (- 15))) (?v_195 (not ?v_37)) (?v_230 (not ?v_140)) (?v_196 (not ?v_95)) (?v_192 (not ?v_101)) (?v_226 (< (- (- (* (- 11) x6) 0) (* 3 x24)) (- 23))) (?v_236 (not ?v_82)) (?v_255 (= (- (+ (* (- 7) x31) (* 7 x15)) (* 6 x39)) 28))) (let ((?v_220 (not ?v_255)) (?v_219 (not ?v_96)) (?v_197 (not ?v_189)) (?v_245 (distinct (+ (- (* (- 2) x38) (* 20 x13)) (* 9 x5)) (- 15)))) (let ((?v_202 (not ?v_245)) (?v_222 (not ?v_208)) (?v_237 (not ?v_136)) (?v_258 (not ?v_139)) (?v_249 (not ?v_226))) (and (and (and (and (and (and (and (and (and (and (and (and (and (and (and (and (and (and (and (and (and (and (and (and (and (and (and (and (and (and (and (and (and (and (and (and (and (and (and (and (and (and (and (and (and (and (and (and (and (and (and (and (and (and (and (and (and (and (and (and (and (and (and (and (and (and (and (and (and (and (and (and (and (and (and (and (and (and (and (and (and (and (and (and (and (and (and (and (and (and (and (and (and (and (and (and (and (and (and (and (and (and (and (and (and (and (and (and (and (and (and (and (and (and (and (and (and (and (and (and (and (and (and (and (and (and (and (and (and (and (and (and (and (and (and (and (and (and (and (and (and (and (and (and (and (and (and (and (and (and (and (and (and (and (and (and (and (and (and (and (and (and (and (and (and (and (and (and (and (and (and (and (and (and (and (and (and (and (and (and (and (and (and (and (and (and (and (and (and (and (and (and (and (and (and (and (and (and (and (and (and (and (and (and (and (and (and (and (and (and (and (and (and (and (and (and (and (and (and (and (and (and (and (and (and (and (and (and (and (and (and (and (and (and (and (and (and (and (and (and (and (and (and (and (and (and (and (and (and (and (and (and (and (and (and (and (and (and (and (and (and (and (and (and (and (and (and (and (and (and (and (and (and (and (and (and (and (and (and (and (and (and (and (and (and (and (and (and (and (and (and (and (and (and (and (and (and (and (and (and (and (and (and (and (and (and (and (and (and (and (and (and (and (and (and (and (and (and (and (and (and (and (and (and (and (and (and (and (and (and (and (and (and (and (and (and (and (and (and (and (and (and (and (and (and (and (and (and (and (and (and (and (and (and (and (and (and (and (and (and (and (and (and (and (and (and (and (and (and (and (and (and (and (and (and (and (and (and (and (and (and (and (and (and (and (and (and (and (and (and (and (and (and (and (and (and (and (and (and (and (and (and (and (and (and (and (and (and (and (and (and (and (and (and (and (and (and (and (and (and (and (and (and (and (and (and (and (and (and (and (and (and (and (and (and (and (and (and (and (and (and (and (and (and (and (and (and (and (and (and (and (and (and (and (and (and (and (and (and (and (and (and (and (and (and (and (and (and (and (and (and (and (and (and (and (and (and (and (and (and (and (and (and (and (and (and (and (and (and (and (and (and (and (and (and (and (and (and (and (and (and (and (and (and (and (and (and (and (and (and (and (and (and (and (and (and (and (and (and (and (and (and (and (and (and (and (and (and (and (and (and (and (and (and (and (and (and (and (and (and (and (and (and (and (and (and (and (and (and (and (and (and (and (and (and (and (and (and (and (and (and (and (and (and (and (and (and (and (and (and (and (and (and (and (and (and (and (and (and (and (and (and (and (and (and (and (and (and (and (and (and (and (and (and (and (and (and (and (and (or (or P11 ?v_29) ?v_5) (or (or P38 P32) P39)) (or (or ?v_81 ?v_27) ?v_16)) (or (or ?v_6 ?v_0) ?v_151)) (or (or ?v_12 ?v_114) ?v_72)) (or (or ?v_59 ?v_169) ?v_15)) (or (or ?v_3 ?v_10) ?v_1)) (or (or ?v_209 ?v_20) ?v_7)) (or (or P27 ?v_1) ?v_51)) (or (or ?v_9 ?v_90) ?v_238)) (or (or ?v_2 ?v_95) ?v_210)) (or (or ?v_79 ?v_21) ?v_162)) (or (or ?v_2 ?v_56) ?v_3)) (or (or ?v_30 ?v_0) ?v_4)) (or (or ?v_5 ?v_44) ?v_11)) (or (or P47 ?v_7) ?v_175)) (or (or P1 ?v_122) ?v_8)) (or (or ?v_8 ?v_63) P33)) (or (or ?v_62 ?v_9) ?v_178)) (or (or ?v_42 ?v_184) P43)) (or (or ?v_39 ?v_179) P41)) (or (or ?v_13 ?v_7) P33)) (or (or ?v_10 ?v_119) ?v_41)) (or (or ?v_11 ?v_12) P24)) (or (or P43 ?v_194) P8)) (or (or ?v_37 ?v_75) ?v_13)) (or (or ?v_116 ?v_13) P10)) (or (or ?v_128 ?v_49) ?v_229)) (or (or P20 ?v_14) P44)) (or (or ?v_2 ?v_161) ?v_15)) (or (or ?v_101 ?v_153) ?v_19)) (or (or ?v_188 ?v_26) ?v_215)) (or (or ?v_231 ?v_16) ?v_2)) (or (or ?v_131 ?v_17) P5)) (or (or ?v_18 P20) ?v_32)) (or (or ?v_53 ?v_60) ?v_129)) (or (or ?v_73 ?v_20) ?v_21)) (or (or ?v_46 P27) ?v_22)) (or (or ?v_66 ?v_35) ?v_14)) (or (or ?v_48 P44) ?v_58)) (or (or ?v_146 P33) ?v_117)) (or (or ?v_45 P20) ?v_40)) (or (or ?v_25 P6) ?v_102)) (or (or ?v_180 ?v_157) ?v_26)) (or (or ?v_27 ?v_91) ?v_164)) (or (or ?v_30 ?v_124) ?v_136)) (or (or ?v_32 ?v_33) ?v_34)) (or (or ?v_2 P35) ?v_33)) (or (or ?v_43 P21) ?v_145)) (or (or P30 ?v_140) P26)) (or (or ?v_57 ?v_37) ?v_109)) (or (or ?v_21 P11) P32)) (or (or ?v_61 ?v_189) ?v_74)) (or (or ?v_38 P21) ?v_181)) (or (or ?v_22 ?v_39) ?v_69)) (or (or ?v_187 ?v_148) ?v_94)) (or (or ?v_41 ?v_42) ?v_173)) (or (or ?v_112 ?v_93) ?v_43)) (or (or ?v_207 ?v_45) ?v_240)) (or (or ?v_46 ?v_2) ?v_97)) (or (or ?v_39 P10) ?v_108)) (or (or ?v_47 P49) P44)) (or (or ?v_7 ?v_48) ?v_49)) (or (or ?v_3 ?v_52) ?v_20)) (or (or ?v_105 ?v_20) ?v_51)) (or (or ?v_55 ?v_5) ?v_52)) (or (or ?v_11 ?v_53) ?v_100)) (or (or ?v_123 ?v_55) ?v_29)) (or (or ?v_171 ?v_56) ?v_77)) (or (or ?v_33 ?v_56) ?v_32)) (or (or ?v_70 ?v_8) ?v_57)) (or (or P5 ?v_58) ?v_59)) (or (or ?v_65 P1) ?v_46)) (or (or ?v_60 ?v_61) P3)) (or (or ?v_82 P15) P36)) (or (or ?v_88 ?v_62) ?v_138)) (or (or ?v_64 ?v_191) ?v_57)) (or (or ?v_10 ?v_65) ?v_66)) (or (or ?v_67 ?v_68) ?v_22)) (or (or ?v_92 ?v_22) ?v_89)) (or (or ?v_182 P28) ?v_71)) (or (or ?v_72 ?v_7) ?v_73)) (or (or P13 ?v_74) ?v_3)) (or (or ?v_130 ?v_44) ?v_68)) (or (or ?v_165 ?v_120) ?v_252)) (or (or P32 ?v_96) P43)) (or (or ?v_75 ?v_208) ?v_76)) (or (or ?v_77 ?v_78) ?v_79)) (or (or P45 ?v_80) ?v_81)) (or (or ?v_10 ?v_82) ?v_83)) (or (or ?v_84 ?v_85) ?v_63)) (or (or ?v_144 P10) ?v_85)) (or (or ?v_86 P21) ?v_87)) (or (or ?v_80 ?v_107) ?v_168)) (or (or ?v_53 ?v_88) ?v_89)) (or (or ?v_90 ?v_91) ?v_92)) (or (or P4 ?v_15) ?v_74)) (or (or P27 ?v_93) ?v_127)) (or (or ?v_94 ?v_95) ?v_38)) (or (or ?v_80 ?v_96) P37)) (or (or ?v_5 ?v_9) P3)) (or (or ?v_99 ?v_98) ?v_172)) (or (or ?v_99 ?v_121) ?v_71)) (or (or P17 P11) P19)) (or (or ?v_132 ?v_103) ?v_217)) (or (or ?v_101 ?v_111) ?v_72)) (or (or ?v_66 P10) ?v_63)) (or (or ?v_102 ?v_75) ?v_98)) (or (or P24 ?v_103) P19)) (or (or ?v_104 ?v_60) ?v_105)) (or (or ?v_158 ?v_32) ?v_106)) (or (or ?v_176 ?v_107) P18)) (or ?v_244 P15)) (or (or ?v_108 ?v_55) ?v_159)) (or (or ?v_135 P16) ?v_106)) (or (or ?v_18 ?v_109) ?v_99)) (or (or ?v_110 P41) P47)) (or (or ?v_111 ?v_25) ?v_152)) (or (or ?v_112 ?v_113) ?v_114)) (or (or ?v_6 ?v_108) ?v_106)) (or (or ?v_253 ?v_118) ?v_150)) (or (or ?v_56 ?v_115) ?v_98)) (or (or ?v_116 P1) ?v_117)) (or (or ?v_118 ?v_43) ?v_119)) (or (or P26 ?v_250) ?v_64)) (or (or ?v_94 ?v_44) ?v_251)) (or (or ?v_122 ?v_123) P37)) (or (or ?v_113 ?v_167) ?v_82)) (or (or ?v_124 ?v_141) ?v_1)) (or (or ?v_126 P24) ?v_241)) (or (or ?v_127 ?v_128) ?v_92)) (or (or P26 P31) ?v_139)) (or (or ?v_74 ?v_129) ?v_130)) (or (or P21 ?v_84) ?v_131)) (or (or ?v_132 ?v_133) ?v_134)) (or (or ?v_195 ?v_103) ?v_120)) (or (or ?v_135 P41) ?v_136)) (or (or ?v_137 ?v_138) ?v_139)) (or (or ?v_74 ?v_11) ?v_19)) (or (or P30 ?v_73) ?v_35)) (or (or ?v_230 ?v_9) ?v_127)) (or (or P12 ?v_119) ?v_35)) (or (or ?v_119 ?v_46) ?v_141)) (or (or ?v_60 P40) ?v_1)) (or (or ?v_225 ?v_110) ?v_10)) (or (or P18 P4) ?v_138)) (or (or ?v_98 ?v_121) ?v_143)) (or (or ?v_51 ?v_160) ?v_144)) (or (or ?v_145 P1) ?v_19)) (or (or ?v_131 ?v_5) P38)) (or (or ?v_90 ?v_3) ?v_146)) (or (or ?v_92 P1) P40)) (or (or ?v_147 ?v_148) P43)) (or (or ?v_59 ?v_201) ?v_130)) (or (or ?v_196 P30) ?v_155)) (or (or ?v_66 ?v_47) P2)) (or (or ?v_60 ?v_74) ?v_119)) (or (or ?v_192 ?v_149) ?v_141)) (or (or ?v_199 ?v_150) ?v_151)) (or (or ?v_22 ?v_48) ?v_53)) (or (or ?v_177 ?v_153) ?v_46)) (or (or ?v_96 ?v_38) ?v_170)) (or (or ?v_155 ?v_137) ?v_156)) (or (or ?v_48 P18) ?v_141)) (or (or ?v_123 ?v_235) ?v_38)) (or (or ?v_43 P12) ?v_82)) (or (or ?v_149 ?v_212) ?v_158)) (or (or ?v_140 P43) ?v_127)) (or (or P35 ?v_76) ?v_62)) (or (or ?v_159 ?v_146) ?v_120)) (or (or P2 ?v_122) ?v_135)) (or (or ?v_17 ?v_109) P22)) (or (or ?v_160 ?v_156) ?v_109)) (or (or P33 ?v_107) ?v_95)) (or (or ?v_65 P28) ?v_61)) (or (or ?v_1 ?v_18) ?v_161)) (or (or P17 ?v_111) ?v_80)) (or (or ?v_226 ?v_8) ?v_162)) (or (or ?v_118 ?v_163) ?v_94)) (or (or ?v_143 ?v_183) ?v_164)) (or (or P3 ?v_165) P15)) (or (or ?v_127 ?v_166) P10)) (or (or P44 ?v_161) ?v_105)) (or (or P26 ?v_45) ?v_97)) (or (or ?v_57 P15) ?v_193)) (or (or ?v_167 ?v_128) ?v_168)) (or (or ?v_168 ?v_72) P35)) (or (or ?v_100 ?v_169) ?v_113)) (or (or ?v_11 P41) ?v_79)) (or (or ?v_118 ?v_213) ?v_170)) (or (or ?v_170 ?v_171) ?v_156)) (or (or ?v_172 ?v_144) ?v_236)) (or (or ?v_114 ?v_173) ?v_220)) (or (or ?v_174 ?v_175) ?v_176)) (or (or ?v_99 ?v_177) ?v_178)) (or (or ?v_228 ?v_18) ?v_206)) (or (or ?v_256 P12) P0)) (or (or ?v_163 ?v_179) P17)) (or (or ?v_186 ?v_4) ?v_120)) (or (or P43 ?v_180) ?v_25)) (or (or ?v_169 ?v_67) ?v_2)) (or (or ?v_190 ?v_115) ?v_156)) (or (or ?v_181 ?v_66) ?v_200)) (or (or P47 P34) ?v_219)) (or (or ?v_182 ?v_183) P36)) (or (or ?v_221 ?v_49) ?v_123)) (or (or ?v_146 ?v_135) ?v_59)) (or (or ?v_57 ?v_138) ?v_169)) (or (or ?v_224 ?v_109) ?v_102)) (or (or ?v_184 ?v_61) P16)) (or (or ?v_21 ?v_83) ?v_7)) (or (or ?v_29 ?v_171) ?v_133)) (or (or ?v_58 ?v_168) ?v_205)) (or (or ?v_144 ?v_167) ?v_32)) (or (or ?v_185 ?v_13) ?v_104)) (or (or ?v_185 ?v_150) ?v_72)) (or (or ?v_64 ?v_186) ?v_88)) (or (or ?v_37 ?v_112) P33)) (or (or ?v_55 ?v_187) ?v_86)) (or (or ?v_227 ?v_188) ?v_6)) (or (or ?v_53 ?v_104) ?v_197)) (or (or ?v_202 ?v_190) P41)) (or (or ?v_6 ?v_144) ?v_138)) (or (or ?v_114 ?v_135) P39)) (or (or ?v_179 ?v_155) ?v_191)) (or (or ?v_118 ?v_192) ?v_180)) (or (or ?v_15 P45) ?v_193)) (or (or ?v_194 P5) P23)) (or (or ?v_195 P19) ?v_116)) (or (or ?v_195 ?v_98) P4)) (or (or ?v_196 ?v_197) ?v_198)) (or (or ?v_105 ?v_67) ?v_29)) (or (or ?v_216 ?v_200) ?v_66)) (or (or P28 ?v_232) ?v_193)) (or (or P13 ?v_133) ?v_201)) (or (or ?v_198 ?v_146) ?v_49)) (or (or ?v_91 ?v_53) ?v_137)) (or (or ?v_127 ?v_173) ?v_33)) (or (or ?v_91 ?v_95) ?v_18)) (or (or ?v_202 ?v_203) ?v_204)) (or (or ?v_205 ?v_183) ?v_127)) (or (or ?v_126 ?v_206) ?v_207)) (or (or P4 ?v_145) P18)) (or (or ?v_87 ?v_81) ?v_25)) (or (or ?v_222 ?v_186) ?v_148)) (or (or ?v_143 ?v_160) P15)) (or (or ?v_45 ?v_177) ?v_209)) (or (or P38 ?v_119) ?v_159)) (or (or P7 ?v_21) ?v_202)) (or (or ?v_194 ?v_206) ?v_151)) (or (or P19 P31) ?v_208)) (or (or P38 ?v_9) ?v_178)) (or (or ?v_210 ?v_89) P2)) (or (or ?v_131 ?v_121) ?v_195)) (or (or ?v_131 ?v_107) P31)) (or (or P8 ?v_141) ?v_121)) (or (or ?v_203 P11) ?v_44)) (or (or ?v_95 ?v_17) ?v_44)) (or (or ?v_89 ?v_211) ?v_64)) (or (or P30 P38) ?v_65)) (or (or ?v_87 ?v_212) ?v_135)) (or (or ?v_20 ?v_145) ?v_12)) (or (or ?v_172 ?v_135) P37)) (or (or ?v_58 ?v_213) ?v_99)) (or (or ?v_171 ?v_168) P30)) (or (or ?v_103 ?v_74) ?v_129)) (or (or ?v_34 P4) P33)) (or (or ?v_214 ?v_153) ?v_203)) (or (or ?v_215 ?v_216) ?v_163)) (or (or ?v_118 ?v_102) ?v_135)) (or (or ?v_82 ?v_35) ?v_217)) (or (or P33 ?v_218) ?v_103)) (or (or P47 ?v_151) ?v_45)) (or (or P42 ?v_129) ?v_47)) (or (or ?v_85 ?v_4) ?v_176)) (or (or ?v_182 P14) ?v_47)) (or (or P0 ?v_187) ?v_203)) (or (or ?v_87 P44) ?v_78)) (or (or ?v_69 ?v_150) ?v_184)) (or (or ?v_237 ?v_108) ?v_13)) (or (or ?v_188 ?v_141) ?v_214)) (or (or ?v_71 ?v_219) ?v_195)) (or (or ?v_166 ?v_134) P16)) (or (or ?v_177 ?v_37) ?v_117)) (or (or ?v_169 P44) ?v_200)) (or (or ?v_194 ?v_258) P29)) (or (or ?v_60 ?v_145) P43)) (or (or ?v_49 ?v_220) ?v_108)) (or (or ?v_137 ?v_84) P0)) (or (or ?v_100 ?v_103) ?v_243)) (or (or ?v_172 ?v_221) ?v_103)) (or (or ?v_77 ?v_167) ?v_67)) (or (or ?v_8 ?v_144) ?v_222)) (or (or P10 ?v_239) ?v_132)) (or (or P44 ?v_222) ?v_32)) (or (or ?v_94 ?v_82) ?v_20)) (or (or ?v_223 P38) P49)) (or (or ?v_224 ?v_187) ?v_12)) (or (or ?v_13 ?v_217) ?v_225)) (or (or ?v_220 ?v_91) P47)) (or (or ?v_226 P28) P9)) (or (or ?v_30 P21) ?v_136)) (or (or ?v_150 P37) ?v_22)) (or (or ?v_149 ?v_87) ?v_3)) (or (or ?v_129 P18) ?v_227)) (or (or ?v_228 P39) ?v_66)) (or (or ?v_143 ?v_39) ?v_189)) (or (or ?v_163 ?v_152) P14)) (or (or ?v_48 ?v_161) P31)) (or (or ?v_113 ?v_129) ?v_229)) (or (or ?v_221 ?v_191) ?v_234)) (or (or ?v_156 ?v_22) ?v_61)) (or (or ?v_13 ?v_98) ?v_55)) (or (or ?v_153 ?v_180) ?v_12)) (or (or ?v_45 ?v_40) ?v_106)) (or (or P21 ?v_195) ?v_163)) (or (or P22 ?v_191) ?v_230)) (or (or ?v_124 ?v_132) ?v_69)) (or (or ?v_149 ?v_132) ?v_195)) (or (or ?v_74 ?v_86) ?v_16)) (or (or ?v_96 ?v_17) ?v_197)) (or (or ?v_195 P24) ?v_88)) (or (or ?v_220 ?v_7) ?v_2)) (or (or ?v_199 ?v_231) ?v_39)) (or (or ?v_149 ?v_226) ?v_107)) (or (or ?v_83 ?v_136) ?v_89)) (or (or ?v_12 ?v_100) ?v_146)) (or (or ?v_117 ?v_194) P3)) (or (or ?v_120 P35) ?v_162)) (or (or P34 ?v_187) ?v_217)) (or (or P16 ?v_61) ?v_113)) (or (or ?v_59 ?v_231) ?v_127)) (or (or ?v_46 ?v_16) P10)) (or (or ?v_177 ?v_66) ?v_103)) (or (or P34 ?v_160) ?v_120)) (or (or ?v_232 ?v_189) ?v_98)) (or (or ?v_242 ?v_101) ?v_153)) (or (or ?v_81 ?v_129) ?v_176)) (or (or ?v_118 ?v_47) ?v_179)) (or (or ?v_92 ?v_98) ?v_143)) (or (or ?v_183 ?v_196) ?v_69)) (or (or ?v_85 ?v_233) ?v_104)) (or (or P4 ?v_201) ?v_219)) (or (or ?v_124 ?v_79) ?v_43)) (or (or ?v_209 ?v_49) ?v_234)) (or (or P43 ?v_26) ?v_25)) (or (or ?v_128 ?v_149) ?v_79)) (or (or ?v_178 ?v_235) ?v_216)) (or (or ?v_170 P30) P23)) (or (or ?v_101 P18) ?v_81)) (or (or P32 ?v_234) P21)) (or (or ?v_119 ?v_158) ?v_117)) (or (or P37 ?v_127) P9)) (or (or ?v_112 ?v_236) P35)) (or (or ?v_3 ?v_237) ?v_74)) (or (or ?v_157 ?v_197) ?v_148)) (or (or ?v_111 ?v_20) ?v_1)) (or (or ?v_162 ?v_79) ?v_171)) (or (or ?v_259 ?v_16) ?v_214)) (or (or ?v_157 ?v_201) ?v_16)) (or (or ?v_237 ?v_143) ?v_191)) (or (or ?v_4 P2) ?v_237)) (or (or ?v_136 ?v_104) ?v_84)) (or (or ?v_137 ?v_79) ?v_165)) (or (or ?v_63 P22) ?v_218)) (or (or ?v_224 P46) P27)) (or (or ?v_96 ?v_130) ?v_95)) (or (or ?v_150 P13) ?v_124)) (or (or ?v_95 ?v_238) ?v_202)) (or (or P5 ?v_67) ?v_150)) (or (or P45 ?v_65) ?v_217)) (or (or ?v_216 ?v_71) ?v_86)) (or (or P25 ?v_40) ?v_140)) (or (or ?v_43 P30) ?v_62)) (or (or ?v_175 ?v_213) P38)) (or (or ?v_21 ?v_129) ?v_171)) (or (or ?v_207 P11) ?v_179)) (or (or ?v_33 ?v_239) ?v_42)) (or (or ?v_32 ?v_97) P7)) (or (or P28 ?v_10) ?v_112)) (or (or ?v_240 ?v_240) ?v_58)) (or (or ?v_176 ?v_249) ?v_49)) (or (or ?v_159 ?v_217) ?v_187)) (or (or ?v_79 ?v_93) ?v_230)) (or (or ?v_167 ?v_157) ?v_2)) (or (or ?v_241 ?v_56) ?v_230)) (or (or ?v_231 ?v_205) ?v_216)) (or (or ?v_12 ?v_196) ?v_39)) (or (or ?v_175 ?v_82) ?v_80)) (or (or ?v_105 P6) ?v_18)) (or (or P18 P1) ?v_11)) (or (or ?v_15 P36) ?v_188)) (or (or ?v_149 ?v_61) ?v_12)) (or (or ?v_100 ?v_118) ?v_236)) (or (or ?v_193 ?v_21) ?v_207)) (or (or ?v_212 P1) ?v_12)) (or (or P46 ?v_242) ?v_138)) (or (or ?v_149 ?v_210) ?v_0)) (or (or ?v_38 P49) ?v_166)) (or (or ?v_11 ?v_202) P40)) (or (or ?v_110 ?v_133) ?v_107)) (or (or ?v_21 ?v_32) ?v_73)) (or (or ?v_119 P32) ?v_135)) (or (or ?v_246 ?v_141) ?v_139)) (or (or ?v_114 P24) ?v_107)) (or (or ?v_106 ?v_152) ?v_58)) (or (or ?v_86 ?v_229) ?v_44)) (or (or ?v_243 ?v_56) P23)) (or ?v_244 ?v_69)) (or (or P18 ?v_108) ?v_245)) (or (or P3 ?v_141) ?v_183)) (or (or ?v_68 ?v_4) P18)) (or (or ?v_89 P23) P44)) (or (or P1 ?v_6) ?v_156)) (or (or ?v_243 ?v_13) ?v_239)) (or (or ?v_115 P15) ?v_26)) (or (or ?v_27 ?v_246) ?v_137)) (or (or ?v_82 ?v_247) P33)) (or (or ?v_235 ?v_60) ?v_243)) (or (or ?v_20 ?v_115) ?v_55)) (or (or ?v_26 ?v_156) P47)) (or (or ?v_171 ?v_178) ?v_97)) (or (or ?v_185 ?v_32) ?v_37)) (or (or ?v_208 ?v_123) ?v_248)) (or (or ?v_249 ?v_227) ?v_207)) (or (or ?v_119 P10) ?v_240)) (or (or ?v_173 ?v_209) ?v_51)) (or (or ?v_17 ?v_60) ?v_160)) (or (or ?v_117 ?v_132) P6)) (or (or ?v_9 ?v_141) ?v_91)) (or (or ?v_70 ?v_200) P27)) (or (or ?v_18 ?v_171) ?v_102)) (or (or P38 ?v_250) ?v_235)) (or (or ?v_114 ?v_55) ?v_68)) (or (or ?v_70 ?v_84) ?v_169)) (or (or ?v_201 ?v_192) ?v_97)) (or (or P7 ?v_121) ?v_178)) (or (or P37 ?v_92) P14)) (or (or ?v_7 ?v_103) ?v_106)) (or (or ?v_251 P16) ?v_203)) (or (or ?v_232 ?v_108) P41)) (or (or ?v_9 ?v_38) ?v_22)) (or (or P29 P11) P32)) (or (or ?v_103 ?v_168) P13)) (or (or ?v_91 ?v_193) ?v_77)) (or (or ?v_30 ?v_198) ?v_169)) (or (or P45 ?v_238) ?v_200)) (or (or ?v_210 ?v_204) ?v_38)) (or (or P15 ?v_180) ?v_114)) (or (or ?v_3 ?v_109) ?v_231)) (or (or ?v_65 ?v_0) ?v_193)) (or (or ?v_16 ?v_26) ?v_66)) (or (or ?v_77 ?v_131) ?v_210)) (or (or ?v_19 ?v_76) ?v_222)) (or (or ?v_122 ?v_92) P33)) (or (or P43 ?v_52) ?v_156)) (or (or ?v_65 P6) ?v_88)) (or (or ?v_106 ?v_133) ?v_3)) (or (or ?v_180 ?v_183) ?v_81)) (or (or ?v_151 P43) P3)) (or (or ?v_123 ?v_226) ?v_105)) (or (or P4 ?v_29) ?v_49)) (or (or ?v_95 ?v_174) ?v_101)) (or (or ?v_66 ?v_208) P29)) (or (or ?v_243 ?v_199) P30)) (or (or ?v_104 ?v_191) ?v_111)) (or (or P28 ?v_117) ?v_171)) (or (or ?v_41 ?v_101) ?v_14)) (or (or P26 P27) ?v_18)) (or (or ?v_232 ?v_101) ?v_34)) (or (or ?v_179 ?v_212) P11)) (or (or ?v_59 P8) ?v_243)) (or (or ?v_252 ?v_133) ?v_182)) (or (or ?v_12 ?v_134) ?v_243)) (or (or ?v_8 ?v_105) P35)) (or (or ?v_232 ?v_104) ?v_179)) (or (or ?v_185 ?v_101) P10)) (or (or ?v_194 ?v_114) ?v_144)) (or (or ?v_169 ?v_220) ?v_210)) (or (or ?v_223 ?v_126) ?v_16)) (or (or ?v_217 P18) ?v_202)) (or (or ?v_82 ?v_117) ?v_0)) (or (or ?v_173 ?v_124) ?v_162)) (or (or ?v_43 ?v_224) ?v_236)) (or (or ?v_9 ?v_74) ?v_151)) (or (or ?v_3 P14) P30)) (or (or ?v_112 ?v_253) ?v_200)) (or (or ?v_13 P3) ?v_129)) (or (or ?v_250 ?v_241) ?v_2)) (or (or ?v_126 ?v_108) ?v_40)) (or (or ?v_100 ?v_149) ?v_4)) (or (or ?v_213 ?v_11) ?v_207)) (or (or ?v_209 ?v_254) ?v_141)) (or (or ?v_19 ?v_52) ?v_127)) (or (or ?v_25 ?v_255) ?v_243)) (or (or ?v_25 ?v_39) P27)) (or (or ?v_217 ?v_42) ?v_139)) (or (or ?v_42 ?v_163) ?v_61)) (or (or ?v_80 ?v_171) ?v_155)) (or (or ?v_228 P29) ?v_80)) (or (or ?v_8 ?v_58) ?v_22)) (or (or ?v_118 ?v_123) ?v_87)) (or (or ?v_257 ?v_15) ?v_6)) (or (or ?v_247 P3) P31)) (or (or ?v_34 ?v_117) ?v_139)) (or (or ?v_82 P38) ?v_84)) (or (or ?v_175 ?v_158) ?v_29)) (or (or ?v_166 ?v_114) ?v_231)) (or (or ?v_230 ?v_34) ?v_85)) (or (or ?v_165 ?v_107) ?v_143)) (or (or ?v_155 ?v_134) ?v_116)) (or (or ?v_106 P8) ?v_164)) (or (or P0 ?v_131) ?v_81)) (or (or ?v_147 P36) P19)) (or (or ?v_35 ?v_97) ?v_34)) (or (or P25 ?v_227) ?v_209)) (or (or ?v_255 ?v_5) ?v_63)) (or (or ?v_212 ?v_130) ?v_177)) (or (or ?v_249 ?v_107) ?v_257)) (or (or ?v_39 P25) ?v_139)) (or (or ?v_82 ?v_148) ?v_233)) (or (or ?v_252 ?v_189) P26)) (or (or P6 ?v_209) ?v_223)) (or (or ?v_134 ?v_253) ?v_86)) (or (or ?v_123 ?v_168) ?v_16)) (or (or ?v_174 ?v_81) ?v_5)) (or (or ?v_211 ?v_25) P44)) (or (or ?v_164 ?v_82) ?v_102)) (or (or ?v_216 ?v_84) ?v_30)) (or (or ?v_202 ?v_131) ?v_72)) (or (or (not P47) ?v_127) P30)) (or (or ?v_224 ?v_219) ?v_33)) (or (or ?v_201 ?v_132) ?v_234)) (or (or ?v_173 P46) ?v_258)) (or (or ?v_78 ?v_189) ?v_195)) (or (or ?v_83 P27) ?v_6)) (or (or P25 P29) ?v_41)) (or (or P35 ?v_60) ?v_15)) (or (or ?v_11 ?v_74) ?v_20)) (or (or ?v_176 ?v_56) P37)) (or (or ?v_201 ?v_65) ?v_222)) (or (or ?v_101 ?v_158) ?v_89)) (or (or ?v_227 ?v_204) P33)) (or (or ?v_129 ?v_25) P30)) (or (or ?v_241 ?v_38) ?v_193)) (or (or ?v_229 P6) ?v_171)) (or (or ?v_25 ?v_175) ?v_216)) (or (or ?v_2 ?v_170) ?v_7)) (or (or ?v_177 ?v_115) ?v_254)) (or (or P30 ?v_27) ?v_152)) (or (or ?v_191 ?v_258) P20)) (or (or P6 ?v_158) ?v_177)) (or (or ?v_209 ?v_187) ?v_190)) (or (or ?v_194 ?v_65) ?v_83)) (or (or ?v_56 ?v_145) ?v_75)) (or (or ?v_179 ?v_49) ?v_129)) (or (or ?v_123 ?v_208) ?v_86)) (or (or ?v_40 ?v_173) ?v_25)) (or (or ?v_190 P2) ?v_74)) (or (or P19 ?v_141) ?v_95)) (or (or ?v_178 ?v_150) ?v_12)) (or (or ?v_212 ?v_184) ?v_33)) (or (or ?v_14 ?v_160) ?v_200)) (or (or ?v_156 ?v_76) ?v_29)) (or (or ?v_199 ?v_10) ?v_201)) (or (or ?v_68 ?v_226) ?v_130)) (or (or ?v_48 ?v_120) ?v_153)) (or (or ?v_95 ?v_91) ?v_155)) (or (or ?v_29 ?v_179) P39)) (or (or ?v_11 ?v_37) P20)) (or (or ?v_18 ?v_243) ?v_167)) (or (or P41 ?v_117) P24)) (or (or P16 ?v_93) ?v_8)) (or (or ?v_217 ?v_59) P29)) (or (or ?v_73 ?v_135) ?v_214)) (or (or ?v_90 ?v_105) ?v_43)) (or (or ?v_141 ?v_146) ?v_245)) (or (or P33 ?v_193) P36)) (or (or ?v_213 P26) ?v_10)) (or (or ?v_113 ?v_206) ?v_246)) (or (or P18 ?v_247) ?v_116)) (or (or ?v_1 ?v_250) ?v_81)) (or (or ?v_245 ?v_229) ?v_116)) (or (or ?v_92 ?v_216) ?v_170)) (or (or ?v_173 P5) ?v_215)) (or (or ?v_204 ?v_215) ?v_20)) (or (or ?v_131 ?v_88) P11)) (or (or ?v_179 ?v_191) ?v_73)) (or (or P33 P20) ?v_193)) (or (or ?v_53 ?v_11) ?v_166)) (or (or ?v_207 ?v_190) ?v_88)) (or (or ?v_60 ?v_241) ?v_208)) (or (or ?v_172 P22) ?v_117)) (or (or P10 ?v_146) ?v_195)) (or (or ?v_237 ?v_101) ?v_217)) (or (or ?v_157 ?v_16) P7)) (or (or ?v_160 ?v_10) ?v_84)) (or (or ?v_93 P7) ?v_248)) (or (or ?v_198 ?v_259) ?v_203)) (or (or P23 P44) ?v_126)))))))))))))))))))))))))))))))))
(check-sat)
(exit)
